;symbolic execution tree
(push)
(assert (le x6 siena.Filter))
(check-sat)
(push)
(assert (le x4 siena.Tokenizer))
(check-sat)
(push)
(assert (le x5 java.lang.String))
(check-sat)
(pop)
(push)
(assert (not (le x5 java.lang.String)))
(check-sat)
(push)
(assert (le x0 java.io.PrintStream))
(check-sat)
(pop)
(push)
(assert (not (le x0 java.io.PrintStream)))
(check-sat)
(pop)
(pop)
(push)
(assert (le x4 siena.Tokenizer))
(check-sat)
(pop)
(push)
(assert (not (le x4 siena.Tokenizer)))
(check-sat)
(pop)
(pop)
(push)
(assert (not (le x4 siena.Tokenizer)))
(check-sat)
(push)
(assert (le x6 siena.Filter))
(check-sat)
(push)
(assert (le x1 java.lang.String))
(check-sat)
(push)
(assert (le x6 siena.Filter))
(check-sat)
(pop)
(push)
(assert (not (le x6 siena.Filter)))
(check-sat)
(pop)
(pop)
(push)
(assert (not (le x1 java.lang.String)))
(check-sat)
(pop)
(pop)
(push)
(assert (not (le x6 siena.Filter)))
(check-sat)
(pop)
(pop)
(push)
(assert (le x0 siena.AttributeValue))
(check-sat)
(push)
(assert (le x7 siena.Poset))
(check-sat)
(push)
(assert (le x3 siena.ByteBuf))
(check-sat)
(pop)
(push)
(assert (not (le x3 siena.ByteBuf)))
(check-sat)
(pop)
(pop)
(push)
(assert (not (le x7 siena.Poset)))
(check-sat)
(push)
(assert (le x6 siena.Filter))
(check-sat)
(push)
(assert (le x4 java.lang.String))
(check-sat)
(pop)
(push)
(assert (not (le x4 java.lang.String)))
(check-sat)
(pop)
(pop)
(push)
(assert (not (le x6 siena.Filter)))
(check-sat)
(pop)
(pop)
(pop)
(push)
(assert (not (le x0 siena.AttributeValue)))
(check-sat)
(push)
(assert (le x3 siena.HierarchicalDispatcher))
(check-sat)
(push)
(assert (le x7 java.io.PrintStream))
(check-sat)
(pop)
(push)
(assert (not (le x7 java.io.PrintStream)))
(check-sat)
(pop)
(pop)
(push)
(assert (not (le x3 siena.HierarchicalDispatcher)))
(check-sat)
(push)
(assert (le x7 siena.AttributeValue))
(check-sat)
(pop)
(push)
(assert (not (le x7 siena.AttributeValue)))
(check-sat)
(pop)
(push)
(assert (le x4 siena.Filter))
(check-sat)
(pop)
(push)
(assert (not (le x4 siena.Filter)))
(check-sat)
(push)
(assert (le x5 java.lang.String))
(check-sat)
(pop)
(push)
(assert (not (le x5 java.lang.String)))
(check-sat)
(pop)
(push)
(assert (le x6 siena.Filter))
(check-sat)
(pop)
(push)
(assert (not (le x6 siena.Filter)))
(check-sat)
(pop)
(pop)
(push)
(assert (le x6 siena.Filter))
(check-sat)
(pop)
(push)
(assert (not (le x6 siena.Filter)))
(check-sat)
(pop)
(push)
(assert (le x6 siena.Filter))
(check-sat)
(pop)
(push)
(assert (not (le x6 siena.Filter)))
(check-sat)
(pop)
(push)
(assert (le x6 siena.Filter))
(check-sat)
(pop)
(push)
(assert (not (le x6 siena.Filter)))
(check-sat)
(pop)
(pop)
(push)
(assert (le x1 siena.AttributeValue))
(check-sat)
(push)
(assert (le x1 siena.AttributeValue))
(check-sat)
(pop)
(push)
(assert (not (le x1 siena.AttributeValue)))
(check-sat)
(pop)
(pop)
(push)
(assert (not (le x1 siena.AttributeValue)))
(check-sat)
(push)
(assert (le x4 java.lang.String))
(check-sat)
(pop)
(push)
(assert (not (le x4 java.lang.String)))
(check-sat)
(pop)
(push)
(assert (le x4 siena.ByteBuf))
(check-sat)
(pop)
(push)
(assert (not (le x4 siena.ByteBuf)))
(check-sat)
(pop)
(push)
(assert (le x7 java.lang.StringBuilder))
(check-sat)
(pop)
(push)
(assert (not (le x7 java.lang.StringBuilder)))
(check-sat)
(pop)
(pop)
(push)
(assert (le x3 java.lang.StringBuilder))
(check-sat)
(pop)
(push)
(assert (not (le x3 java.lang.StringBuilder)))
(check-sat)
(pop)
(pop)
(push)
(assert (le x4 java.lang.String))
(check-sat)
(pop)
(push)
(assert (not (le x4 java.lang.String)))
(check-sat)
(pop)
(push)
(assert (le x2 java.lang.StringBuilder))
(check-sat)
(push)
(assert (le x3 java.util.Set))
(check-sat)
(pop)
(push)
(assert (not (le x3 java.util.Set)))
(check-sat)
(pop)
(push)
(assert (le x3 siena.Event))
(check-sat)
(pop)
(push)
(assert (not (le x3 siena.Event)))
(check-sat)
(pop)
(push)
(assert (le x1 siena.Tokenizer))
(check-sat)
(pop)
(push)
(assert (not (le x1 siena.Tokenizer)))
(check-sat)
(push)
(assert (le x5 java.lang.String))
(check-sat)
(push)
(assert (le x5 java.lang.String))
(check-sat)
(pop)
(push)
(assert (not (le x5 java.lang.String)))
(check-sat)
(pop)
(pop)
(push)
(assert (not (le x5 java.lang.String)))
(check-sat)
(pop)
(pop)
(push)
(assert (le x2 java.lang.StringBuilder))
(check-sat)
(push)
(assert (le x7 siena.Tokenizer))
(check-sat)
(push)
(assert (le x7 siena.Tokenizer))
(check-sat)
(pop)
(push)
(assert (not (le x7 siena.Tokenizer)))
(check-sat)
(pop)
(pop)
(push)
(assert (not (le x7 siena.Tokenizer)))
(check-sat)
(pop)
(pop)
(push)
(assert (not (le x2 java.lang.StringBuilder)))
(check-sat)
(pop)
(push)
(assert (le x5 siena.HierarchicalDispatcher))
(check-sat)
(pop)
(push)
(assert (not (le x5 siena.HierarchicalDispatcher)))
(check-sat)
(push)
(assert (le x7 java.lang.String))
(check-sat)
(push)
(assert (le x4 java.lang.StringBuilder))
(check-sat)
(pop)
(push)
(assert (not (le x4 java.lang.StringBuilder)))
(check-sat)
(pop)
(pop)
(push)
(assert (not (le x7 java.lang.String)))
(check-sat)
(pop)
(pop)
(pop)
(push)
(assert (not (le x2 java.lang.StringBuilder)))
(check-sat)
(pop)
(push)
(assert (le x7 siena.Event))
(check-sat)
(push)
(assert (le x6 siena.Filter))
(check-sat)
(push)
(assert (le x1 java.lang.StringBuilder))
(check-sat)
(pop)
(push)
(assert (not (le x1 java.lang.StringBuilder)))
(check-sat)
(pop)
(pop)
(push)
(assert (not (le x6 siena.Filter)))
(check-sat)
(pop)
(push)
(assert (le x4 siena.AttributeConstraint))
(check-sat)
(pop)
(push)
(assert (not (le x4 siena.AttributeConstraint)))
(check-sat)
(push)
(assert (le x2 siena.Filter))
(check-sat)
(pop)
(push)
(assert (not (le x2 siena.Filter)))
(check-sat)
(pop)
(push)
(assert (le x0 java.util.Set))
(check-sat)
(pop)
(push)
(assert (not (le x0 java.util.Set)))
(check-sat)
(pop)
(pop)
(push)
(assert (le x5 siena.HierarchicalDispatcher))
(check-sat)
(pop)
(push)
(assert (not (le x5 siena.HierarchicalDispatcher)))
(check-sat)
(pop)
(push)
(assert (le x6 siena.Filter))
(check-sat)
(pop)
(push)
(assert (not (le x6 siena.Filter)))
(check-sat)
(pop)
(push)
(assert (le x1 java.lang.String))
(check-sat)
(pop)
(push)
(assert (not (le x1 java.lang.String)))
(check-sat)
(pop)
(pop)
(push)
(assert (not (le x7 siena.Event)))
(check-sat)
(pop)
(push)
(assert (le x5 java.lang.String))
(check-sat)
(push)
(assert (le x1 siena.AttributeValue))
(check-sat)
(pop)
(push)
(assert (not (le x1 siena.AttributeValue)))
(check-sat)
(push)
(assert (le x6 siena.Filter))
(check-sat)
(pop)
(push)
(assert (not (le x6 siena.Filter)))
(check-sat)
(pop)
(pop)
(push)
(assert (le x2 java.lang.String))
(check-sat)
(pop)
(push)
(assert (not (le x2 java.lang.String)))
(check-sat)
(pop)
(push)
(assert (le x5 java.lang.String))
(check-sat)
(pop)
(push)
(assert (not (le x5 java.lang.String)))
(check-sat)
(pop)
(pop)
(push)
(assert (not (le x5 java.lang.String)))
(check-sat)
(push)
(assert (le x2 siena.Event))
(check-sat)
(pop)
(push)
(assert (not (le x2 siena.Event)))
(check-sat)
(pop)
(push)
(assert (le x0 java.lang.String))
(check-sat)
(push)
(assert (le x1 java.lang.String))
(check-sat)
(pop)
(push)
(assert (not (le x1 java.lang.String)))
(check-sat)
(pop)
(pop)
(push)
(assert (not (le x0 java.lang.String)))
(check-sat)
(push)
(assert (le x7 java.lang.StringBuilder))
(check-sat)
(push)
(assert (le x2 java.lang.String))
(check-sat)
(pop)
(push)
(assert (not (le x2 java.lang.String)))
(check-sat)
(pop)
(pop)
(push)
(assert (not (le x7 java.lang.StringBuilder)))
(check-sat)
(push)
(assert (le x1 java.lang.StringBuilder))
(check-sat)
(pop)
(push)
(assert (not (le x1 java.lang.StringBuilder)))
(check-sat)
(pop)
(push)
(assert (le x6 siena.Filter))
(check-sat)
(pop)
(push)
(assert (not (le x6 siena.Filter)))
(check-sat)
(pop)
(push)
(assert (le x1 siena.AttributeValue))
(check-sat)
(pop)
(push)
(assert (not (le x1 siena.AttributeValue)))
(check-sat)
(pop)
(push)
(assert (le x5 java.lang.String))
(check-sat)
(pop)
(push)
(assert (not (le x5 java.lang.String)))
(check-sat)
(pop)
(pop)
(push)
(assert (le x2 java.lang.String))
(check-sat)
(push)
(assert (le x4 siena.Event))
(check-sat)
(pop)
(push)
(assert (not (le x4 siena.Event)))
(check-sat)
(pop)
(push)
(assert (le x2 java.lang.String))
(check-sat)
(pop)
(push)
(assert (not (le x2 java.lang.String)))
(check-sat)
(pop)
(pop)
(push)
(assert (not (le x2 java.lang.String)))
(check-sat)
(pop)
(pop)
(push)
(assert (le x4 java.lang.String))
(check-sat)
(pop)
(push)
(assert (not (le x4 java.lang.String)))
(check-sat)
(pop)
(pop)
(push)
(assert (le x4 java.io.PrintStream))
(check-sat)
(push)
(assert (le x4 java.io.PrintStream))
(check-sat)
(push)
(assert (le x0 java.lang.StringBuilder))
(check-sat)
(pop)
(push)
(assert (not (le x0 java.lang.StringBuilder)))
(check-sat)
(push)
(assert (le x2 java.lang.StringBuilder))
(check-sat)
(pop)
(push)
(assert (not (le x2 java.lang.StringBuilder)))
(check-sat)
(pop)
(pop)
(push)
(assert (le x2 java.lang.String))
(check-sat)
(pop)
(push)
(assert (not (le x2 java.lang.String)))
(check-sat)
(pop)
(push)
(assert (le x0 siena.AttributeValue))
(check-sat)
(pop)
(push)
(assert (not (le x0 siena.AttributeValue)))
(check-sat)
(pop)
(push)
(assert (le x2 java.lang.String))
(check-sat)
(push)
(assert (le x2 java.lang.String))
(check-sat)
(pop)
(push)
(assert (not (le x2 java.lang.String)))
(check-sat)
(pop)
(push)
(assert (le x7 java.lang.Byte))
(check-sat)
(pop)
(push)
(assert (not (le x7 java.lang.Byte)))
(check-sat)
(pop)
(pop)
(push)
(assert (not (le x2 java.lang.String)))
(check-sat)
(push)
(assert (le x0 java.lang.String))
(check-sat)
(pop)
(push)
(assert (not (le x0 java.lang.String)))
(check-sat)
(pop)
(push)
(assert (le x5 java.lang.String))
(check-sat)
(pop)
(push)
(assert (not (le x5 java.lang.String)))
(check-sat)
(pop)
(pop)
(push)
(assert (le x4 java.io.PrintStream))
(check-sat)
(pop)
(push)
(assert (not (le x4 java.io.PrintStream)))
(check-sat)
(pop)
(pop)
(push)
(assert (not (le x4 java.io.PrintStream)))
(check-sat)
(pop)
(push)
(assert (le x6 siena.Filter))
(check-sat)
(push)
(assert (le x5 siena.AttributeValue))
(check-sat)
(pop)
(push)
(assert (not (le x5 siena.AttributeValue)))
(check-sat)
(pop)
(pop)
(push)
(assert (not (le x6 siena.Filter)))
(check-sat)
(pop)
(push)
(assert (le x3 siena.AttributeValue))
(check-sat)
(push)
(assert (le x7 siena.HierarchicalDispatcher))
(check-sat)
(push)
(assert (le x2 java.lang.String))
(check-sat)
(pop)
(push)
(assert (not (le x2 java.lang.String)))
(check-sat)
(pop)
(pop)
(push)
(assert (not (le x7 siena.HierarchicalDispatcher)))
(check-sat)
(push)
(assert (le x7 siena.HierarchicalDispatcher))
(check-sat)
(pop)
(push)
(assert (not (le x7 siena.HierarchicalDispatcher)))
(check-sat)
(pop)
(pop)
(pop)
(push)
(assert (not (le x3 siena.AttributeValue)))
(check-sat)
(pop)
(push)
(assert (le x0 siena.AttributeValue))
(check-sat)
(pop)
(push)
(assert (not (le x0 siena.AttributeValue)))
(check-sat)
(pop)
(push)
(assert (le x0 java.net.InetAddress))
(check-sat)
(push)
(assert (le x2 java.lang.StringBuilder))
(check-sat)
(push)
(assert (le x1 java.lang.String))
(check-sat)
(pop)
(push)
(assert (not (le x1 java.lang.String)))
(check-sat)
(pop)
(pop)
(push)
(assert (not (le x2 java.lang.StringBuilder)))
(check-sat)
(pop)
(pop)
(push)
(assert (not (le x0 java.net.InetAddress)))
(check-sat)
(push)
(assert (le x1 java.lang.String))
(check-sat)
(push)
(assert (le x3 siena.Tokenizer))
(check-sat)
(pop)
(push)
(assert (not (le x3 siena.Tokenizer)))
(check-sat)
(pop)
(pop)
(push)
(assert (not (le x1 java.lang.String)))
(check-sat)
(push)
(assert (le x5 java.lang.String))
(check-sat)
(pop)
(push)
(assert (not (le x5 java.lang.String)))
(check-sat)
(pop)
(pop)
(pop)
(push)
(assert (le x6 siena.Filter))
(check-sat)
(pop)
(push)
(assert (not (le x6 siena.Filter)))
(check-sat)
(pop)
(push)
(assert (le x5 java.lang.String))
(check-sat)
(pop)
(push)
(assert (not (le x5 java.lang.String)))
(check-sat)
(pop)
(push)
(assert (le x4 java.io.PrintStream))
(check-sat)
(push)
(assert (le x6 siena.Filter))
(check-sat)
(push)
(assert (le x5 siena.Tokenizer))
(check-sat)
(pop)
(push)
(assert (not (le x5 siena.Tokenizer)))
(check-sat)
(pop)
(pop)
(push)
(assert (not (le x6 siena.Filter)))
(check-sat)
(pop)
(pop)
(push)
(assert (not (le x4 java.io.PrintStream)))
(check-sat)
(pop)
(push)
(assert (le x5 java.util.Set))
(check-sat)
(push)
(assert (le x1 java.lang.String))
(check-sat)
(push)
(assert (le x7 java.lang.String))
(check-sat)
(pop)
(push)
(assert (not (le x7 java.lang.String)))
(check-sat)
(pop)
(push)
(assert (le x7 java.lang.String))
(check-sat)
(pop)
(push)
(assert (not (le x7 java.lang.String)))
(check-sat)
(pop)
(pop)
(push)
(assert (not (le x1 java.lang.String)))
(check-sat)
(pop)
(pop)
(push)
(assert (not (le x5 java.util.Set)))
(check-sat)
(pop)
(push)
(assert (le x1 java.lang.StringBuilder))
(check-sat)
(pop)
(push)
(assert (not (le x1 java.lang.StringBuilder)))
(check-sat)
(pop)
(pop)
(push)
(assert (not (le x4 java.io.PrintStream)))
(check-sat)
(push)
(assert (le x2 siena.Poset))
(check-sat)
(pop)
(push)
(assert (not (le x2 siena.Poset)))
(check-sat)
(pop)
(push)
(assert (le x4 java.io.PrintStream))
(check-sat)
(pop)
(push)
(assert (not (le x4 java.io.PrintStream)))
(check-sat)
(pop)
(pop)
(pop)
(push)
(assert (not (le x6 siena.Filter)))
(check-sat)
(pop)
